# Objective value = 95603
x66 0
x67 0
x68 1
x69 0
x70 1
x71 1
x72 1
x73 0
x74 0
x75 0
x76 0
x77 1
x78 1
x79 1
x80 0
x81 1
x82 0
x83 0
x84 0
x85 1
x86 0
x87 0
x88 1
x89 1
x90 1
x91 0
x92 1
x93 0
x94 0
x95 1
x96 1
x97 1
x98 0
x99 1
x100 0
x101 1
x102 1
x103 0
x104 0
x105 0
x106 1
x107 0
x108 1
x109 0
x110 0
x111 0
x112 1
x113 1
x114 1
x115 0
x116 1
x117 0
x118 1
x119 1
x120 0
x121 0
x122 1
x123 1
x124 1
x125 0
x126 1
x127 0
x128 1
x129 1
x130 0
x131 1
x132 0
x133 1
x134 1
x135 1
x136 0
x137 1
x138 0
x139 1
x140 1
x141 0
x142 1
x143 1
x144 0
x145 1
x146 1
x147 1
x148 0
x149 1
x150 0
x151 1
x152 1
x153 0
x154 1
x155 1
x156 1
x157 0
x158 1
x159 1
x160 1
x161 0
x162 1
x163 0
x164 1
x165 1
x166 0
x167 1
x168 1
x169 1
x170 1
x171 1
x172 0
x173 0
x174 0
x175 1
x176 0
x177 1
x178 0
x179 0
x180 1
x181 0
x182 0
x183 0
x184 0
x185 0
x186 0
x187 1
x188 1
x189 1
x190 0
x191 1
x192 0
x193 1
x194 1
x195 0
x196 1
x197 1
x198 1
x199 1
x200 1
x201 0
x202 0
x203 1
x204 1
x205 1
x206 0
x207 0
x208 1
x209 0
x210 1
x211 1
x212 1
x213 0
x214 1
x215 1
x216 1
x217 1
x218 0
x219 0
x220 0
x221 1
x222 0
x223 1
x224 0
x225 0
x226 0
x227 1
x228 1
x229 1
x230 0
x231 1
x232 1
x233 1
x234 1
x235 0
x236 1
x237 0
x238 1
x239 0
x240 0
x241 1
x242 0
x243 0
x244 0
x245 1
x246 0
x247 0
x248 1
x249 0
x250 1
x251 1
x252 1
x253 1
x254 1
x255 1
x256 0
x257 1
x258 0
x259 0
x260 1
x261 0
x262 1
x263 1
x264 1
x265 0
x266 1
x267 1
x268 0
x269 1
x270 0
x271 1
x272 0
x273 1
x274 0
x275 1
x276 1
x277 1
x278 1
x279 1
x280 1
x281 0
x282 1
x283 0
x284 1
x285 1
x286 0
x287 1
x288 1
x289 0
x290 1
x291 1
x292 1
x293 1
x294 1
x295 0
x296 1
x297 0
x298 1
x299 1
x300 1
x301 1
x302 0
x303 1
x304 1
x305 0
x306 0
x307 0
x308 0
x309 0
x310 1
x311 0
x312 1
x313 0
x314 0
x315 0
x316 0
x317 0
x318 1
x319 1
x320 0
x321 1
x322 1
x323 1
x324 1
x325 1
x326 0
x327 1
x328 0
x329 1
x330 1
x331 1
x332 1
x333 0
x334 0
x335 0
x336 1
x337 0
x338 1
x339 1
x340 1
x341 1
x342 1
x343 0
x344 1
x345 0
x346 1
x347 1
x348 1
x349 1
x350 0
x351 1
x352 0
x353 1
x354 1
x355 1
x356 1
x357 0
x358 1
x359 1
x360 1
x361 0
x362 1
x363 0
x364 1
x365 1
x366 1
x367 1
x368 0
x369 1
x370 1
x371 0
x372 1
x373 0
x374 1
x375 1
x376 0
x377 1
x378 1
x379 1
x380 0
x381 1
x382 0
x383 1
x384 1
x385 1
x386 1
x387 0
x388 1
x389 1
x390 1
x391 0
x392 1
x393 1
x394 1
x395 1
x396 0
x397 1
x398 1
x399 1
x400 0
x401 1
x402 0
x403 1
x404 1
x405 1
x406 1
x407 0
x408 1
x409 1
x410 1
x411 1
x412 1
x413 1
x414 0
x415 0
x416 0
x417 1
x418 0
x419 0
x420 0
x421 1
x422 0
x423 1
x424 0
x425 0
x426 0
x427 0
x428 1
x429 0
x430 0
x431 0
x432 0
x433 0
x434 0
x435 1
x436 1
x437 1
x438 0
x439 1
x440 1
x441 1
x442 0
x443 1
x444 0
x445 1
x446 0
x447 0
x448 0
x449 1
x450 1
x451 0
x452 0
x453 1
x454 0
x455 0
x456 0
x457 0
x458 1
x459 1
x460 1
x461 0
x462 1
x463 1
x464 1
x465 0
x466 1
x467 1
x468 1
x469 0
x470 0
x471 1
x472 1
x473 1
x474 0
x475 1
x476 1
x477 1
x478 0
x479 1
x480 1
x481 1
x482 0
x483 1
x484 0
x485 1
x486 1
x487 0
x488 1
x489 1
x490 1
x491 0
x492 1
x493 1
x494 1
x495 1
x496 0
x497 1
x498 1
x499 0
x500 1
x501 1
x502 0
x503 1
x504 1
x505 1
x506 0
x507 1
x508 1
x509 1
x510 1
x511 0
x512 1
x513 1
x514 1
x515 0
x516 1
x517 1
x518 0
x519 1
x520 1
x521 0
x522 0
x523 1
x524 1
x525 1
x526 1
x527 0
x528 1
x529 1
x530 1
x531 1
x532 1
x533 1
x534 0
x535 1
x536 0
x537 0
x538 0
x539 1
x540 0
x541 0
x542 0
x543 0
x544 1
x545 0
x546 0
x547 0
x548 0
x549 0
x550 0
x551 0
x552 1
x553 1
x554 1
x555 1
x556 1
x557 0
x558 1
x559 1
x560 1
x561 1
x562 0
x563 1
x564 1
x565 1
x566 1
x567 1
x568 0
x569 0
x570 0
x571 1
x572 1
x573 1
x574 1
x575 1
x576 0
x577 1
x578 1
x579 1
x580 1
x581 0
x582 1
x583 1
x584 1
x585 1
x586 1
x587 0
x588 1
x589 1
x590 1
x591 0
x592 0
x593 0
x594 1
x595 0
x596 1
x597 0
x598 0
x599 0
x600 0
x601 1
x602 0
x603 0
x604 0
x605 0
x606 0
x607 1
x608 0
x609 0
x610 0
x611 0
x612 1
x613 1
x614 1
x615 1
x616 1
x617 0
x618 1
x619 1
x620 0
x621 1
x622 0
x623 1
x624 1
x625 1
x626 1
x627 1
x628 0
x629 1
x630 1
x631 0
x632 1
x633 1
x634 0
x635 0
x636 1
x637 0
x638 0
x639 0
x640 0
x641 0
x642 1
x643 0
x644 1
x645 0
x646 0
x647 0
x648 0
x649 0
x650 1
x651 0
x652 0
x653 1
x654 0
x655 0
x656 1
x657 1
x658 1
x659 0
x660 1
x661 0
x662 1
x663 1
x664 1
x665 0
x666 1
x667 0
x668 1
x669 1
x670 1
x671 1
x672 1
x673 0
x674 1
x675 1
x676 0
x677 1
x678 0
x679 0
x680 1
x681 1
x682 1
x683 0
x684 1
x685 1
x686 1
x687 1
x688 1
x689 0
x690 1
x691 0
x692 1
x693 1
x694 1
x695 1
x696 1
x697 0
x698 1
x699 1
x700 0
x701 1
x702 0
x703 1
x704 0
x705 1
x706 1
x707 1
x708 0
x709 1
x710 1
x711 1
x712 1
x713 1
x714 0
x715 1
x716 0
x717 1
x718 1
x719 1
x720 1
x721 1
x722 0
x723 1
x724 1
x725 0
x726 1
x727 0
x728 1
x729 1
x730 1
x731 0
x732 0
x733 0
x734 1
x735 0
x736 0
x737 0
x738 1
x739 0
x740 1
x741 0
x742 1
x743 0
x744 0
x745 0
x746 1
x747 0
x748 1
x749 1
x750 1
x751 0
x752 0
x753 1
x754 1
x755 0
x756 1
x757 1
x758 1
x759 0
x760 1
x761 1
x762 1
x763 1
x764 0
x765 0
x766 1
x767 1
x768 1
x769 0
x770 1
x771 1
x772 1
x773 0
x774 1
x775 1
x776 1
x777 0
x778 1
x779 1
x780 0
x781 1
x782 0
x783 1
x784 0
x785 1
x786 1
x787 1
x788 0
x789 1
x790 1
x791 1
x792 0
x793 1
x794 1
x795 1
x796 0
x797 1
x798 1
x799 1
x800 1
x801 0
x802 1
x803 1
x804 0
x805 1
x806 1
x807 0
x808 1
x809 1
x810 1
x811 0
x812 1
x813 1
x814 1
x815 1
x816 1
x817 1
x818 0
x819 1
x820 0
x821 0
x822 1
x823 1
x824 1
x825 0
x826 1
x827 1
x828 0
x829 1
x830 1
x831 1
x832 0
x833 1
x834 1
x835 1
x836 1
x837 1
x838 1
x839 0
x840 1
x841 1
x842 0
x843 1
x844 1
x845 1
x846 1
x847 1
x848 0
x849 0
x850 1
x851 0
x852 0
x853 1
x854 1
x855 0
x856 0
x857 0
x858 0
x859 0
x860 0
x861 1
x862 1
x863 0
x864 1
x865 0
x866 0
x867 0
x868 0
x869 0
x870 0
x871 0
x872 1
x873 0
x874 1
x875 1
x876 1
x877 0
x878 1
x879 1
x880 1
x881 1
x882 1
x883 1
x884 0
x885 1
x886 1
x887 0
x888 1
x889 1
x890 1
x891 1
x892 1
x893 0
x894 0
x895 0
x896 1
x897 1
x898 1
x899 1
x900 1
x901 0
x902 1
x903 1
x904 1
x905 1
x906 1
x907 1
x908 1
x909 0
x910 1
x911 0
x912 1
x913 1
x914 1
x915 1
x916 1
x917 0
x918 1
x919 0
x920 0
x921 1
x922 1
x923 1
x924 1
x925 1
x926 0
x927 1
x928 1
x929 1
x930 0
x931 1
x932 1
x933 1
x934 0
x935 1
x936 0
x937 1
x938 1
x939 1
x940 1
x941 1
x942 0
x943 1
x944 1
x945 0
x946 0
x947 1
x948 1
x949 1
x950 0
x951 1
x952 0
x953 1
x954 1
x955 1
x956 1
x957 1
x958 1
x959 1
x960 0
x961 1
x962 0
x963 1
x964 1
x965 1
x966 1
x967 1
x968 0
x969 1
x970 1
x971 1
x972 1
x973 1
x974 0
x975 0
x976 0
x977 0
x978 0
x979 1
x980 0
x981 0
x982 1
x983 0
x984 1
x985 0
x986 0
x987 1
x988 0
x989 1
x990 0
x991 0
x992 0
x993 0
x994 0
x995 1
x996 0
x997 0
x998 0
x999 0
x1000 0
x1001 0
x1002 1
x1003 1
x1004 0
x1005 1
x1006 1
x1007 1
x1008 1
x1009 1
x1010 0
x1011 1
x1012 1
x1013 0
x1014 1
x1015 1
x1016 1
x1017 0
x1018 1
x1019 1
x1020 1
x1021 1
x1022 1
x1023 0
x1024 1
x1025 1
x1026 1
x1027 1
x1028 0
x1029 1
x1030 0
x1031 0
x1032 0
x1033 1
x1034 0
x1035 1
x1036 0
x1037 0
x1038 0
x1039 1
x1040 1
x1041 0
x1042 1
x1043 0
x1044 0
x1045 0
x1046 1
x1047 0
x1048 0
x1049 0
x1050 0
x1051 0
x1052 1
x1053 0
x1054 0
x1055 0
x1056 0
x1057 1
x1058 0
x1059 0
x1060 1
x1061 1
x1062 1
x1063 0
x1064 1
x1065 1
x1066 1
x1067 1
x1068 1
x1069 0
x1070 1
x1071 1
x1072 0
x1073 1
x1074 1
x1075 1
x1076 0
x1077 1
x1078 1
x1079 1
x1080 1
x1081 1
x1082 0
x1083 1
x1084 1
x1085 1
x1086 1
x1087 0
x1088 1
x1089 0
x1090 0
x1091 1
x1092 1
x1093 1
x1094 0
x1095 1
x1096 1
x1097 1
x1098 1
x1099 1
x1100 0
x1101 1
x1102 0
x1103 0
x1104 1
x1105 1
x1106 1
x1107 0
x1108 1
x1109 1
x1110 1
x1111 1
x1112 1
x1113 0
x1114 1
x1115 1
x1116 1
x1117 1
x1118 0
x1119 1
x1120 0
x1121 1
x1 1
x2 0
x3 0
x4 0
x5 1
x6 0
x7 1
x8 0
x9 0
x10 1
x11 0
x12 0
x13 0
x14 0
x15 0
x16 1
x17 0
x18 0
x19 0
x20 1
x21 0
x22 1
x23 0
x24 0
x25 0
x26 0
x27 1
x28 0
x29 0
x30 0
x31 0
x32 0
x33 1
x34 0
x35 1
x36 0
x37 0
x38 0
x39 0
x40 0
x41 1
x42 0
x43 0
x44 1
x45 0
x46 1
x47 0
x48 0
x49 0
x50 1
x51 0
x52 0
x53 0
x54 0
x55 0
x56 1
x57 0
x58 0
x59 0
x60 0
x61 1
x62 0
x63 1
x64 0
x65 0
